(declare-const v0 Bool)
(declare-const v1 Bool)
(declare-const v2 Bool)
(declare-const v3 Bool)
(declare-const v4 Bool)
(assert (edge true true))
(assert (edge (not v1) (or v1 v3 (not v4))))
(assert (edge (not v0) true))
(assert (edge true v2))
(assert (edge (or v0 v1) (or (not v3) (not v4))))
(assert (not (edge (or (not v3) (not v0)) (or v3 (not v2)))))